c Generated map
c Size: 15 * 15, weights in range: 1 to 10, walls: False, with ratio 0.0
c dim 4 of 4
c
p sp 225 420
c graph contains 225 nodes and 420 arcs
c
a 1 16 2
a 16 1 2
a 1 2 9
a 2 1 9
a 2 17 8
a 17 2 8
a 2 3 3
a 3 2 3
a 3 18 2
a 18 3 2
a 3 4 7
a 4 3 7
a 4 19 5
a 19 4 5
a 4 5 7
a 5 4 7
a 5 20 10
a 20 5 10
a 5 6 5
a 6 5 5
a 6 21 2
a 21 6 2
a 6 7 3
a 7 6 3
a 7 22 2
a 22 7 2
a 7 8 8
a 8 7 8
a 8 23 7
a 23 8 7
a 8 9 6
a 9 8 6
a 9 24 6
a 24 9 6
a 9 10 3
a 10 9 3
a 10 25 8
a 25 10 8
a 10 11 2
a 11 10 2
a 11 26 3
a 26 11 3
a 11 12 10
a 12 11 10
a 12 27 9
a 27 12 9
a 12 13 5
a 13 12 5
a 13 28 1
a 28 13 1
a 13 14 7
a 14 13 7
a 14 29 3
a 29 14 3
a 14 15 4
a 15 14 4
a 15 30 6
a 30 15 6
a 16 31 5
a 31 16 5
a 16 17 10
a 17 16 10
a 17 32 2
a 32 17 2
a 17 18 9
a 18 17 9
a 18 33 4
a 33 18 4
a 18 19 10
a 19 18 10
a 19 34 5
a 34 19 5
a 19 20 10
a 20 19 10
a 20 35 10
a 35 20 10
a 20 21 5
a 21 20 5
a 21 36 6
a 36 21 6
a 21 22 10
a 22 21 10
a 22 37 9
a 37 22 9
a 22 23 10
a 23 22 10
a 23 38 1
a 38 23 1
a 23 24 10
a 24 23 10
a 24 39 2
a 39 24 2
a 24 25 3
a 25 24 3
a 25 40 6
a 40 25 6
a 25 26 10
a 26 25 10
a 26 41 3
a 41 26 3
a 26 27 6
a 27 26 6
a 27 42 3
a 42 27 3
a 27 28 3
a 28 27 3
a 28 43 4
a 43 28 4
a 28 29 7
a 29 28 7
a 29 44 1
a 44 29 1
a 29 30 7
a 30 29 7
a 30 45 6
a 45 30 6
a 31 46 9
a 46 31 9
a 31 32 10
a 32 31 10
a 32 47 1
a 47 32 1
a 32 33 9
a 33 32 9
a 33 48 4
a 48 33 4
a 33 34 5
a 34 33 5
a 34 49 6
a 49 34 6
a 34 35 3
a 35 34 3
a 35 50 3
a 50 35 3
a 35 36 6
a 36 35 6
a 36 51 1
a 51 36 1
a 36 37 10
a 37 36 10
a 37 52 5
a 52 37 5
a 37 38 8
a 38 37 8
a 38 53 9
a 53 38 9
a 38 39 1
a 39 38 1
a 39 54 10
a 54 39 10
a 39 40 4
a 40 39 4
a 40 55 4
a 55 40 4
a 40 41 6
a 41 40 6
a 41 56 8
a 56 41 8
a 41 42 7
a 42 41 7
a 42 57 5
a 57 42 5
a 42 43 7
a 43 42 7
a 43 58 10
a 58 43 10
a 43 44 6
a 44 43 6
a 44 59 5
a 59 44 5
a 44 45 9
a 45 44 9
a 45 60 2
a 60 45 2
a 46 61 2
a 61 46 2
a 46 47 2
a 47 46 2
a 47 62 10
a 62 47 10
a 47 48 7
a 48 47 7
a 48 63 9
a 63 48 9
a 48 49 4
a 49 48 4
a 49 64 3
a 64 49 3
a 49 50 10
a 50 49 10
a 50 65 10
a 65 50 10
a 50 51 8
a 51 50 8
a 51 66 10
a 66 51 10
a 51 52 1
a 52 51 1
a 52 67 9
a 67 52 9
a 52 53 9
a 53 52 9
a 53 68 6
a 68 53 6
a 53 54 7
a 54 53 7
a 54 69 4
a 69 54 4
a 54 55 4
a 55 54 4
a 55 70 7
a 70 55 7
a 55 56 9
a 56 55 9
a 56 71 5
a 71 56 5
a 56 57 5
a 57 56 5
a 57 72 1
a 72 57 1
a 57 58 5
a 58 57 5
a 58 73 2
a 73 58 2
a 58 59 8
a 59 58 8
a 59 74 2
a 74 59 2
a 59 60 7
a 60 59 7
a 60 75 6
a 75 60 6
a 61 76 5
a 76 61 5
a 61 62 4
a 62 61 4
a 62 77 5
a 77 62 5
a 62 63 10
a 63 62 10
a 63 78 2
a 78 63 2
a 63 64 7
a 64 63 7
a 64 79 4
a 79 64 4
a 64 65 7
a 65 64 7
a 65 80 2
a 80 65 2
a 65 66 1
a 66 65 1
a 66 81 5
a 81 66 5
a 66 67 6
a 67 66 6
a 67 82 8
a 82 67 8
a 67 68 7
a 68 67 7
a 68 83 1
a 83 68 1
a 68 69 3
a 69 68 3
a 69 84 7
a 84 69 7
a 69 70 9
a 70 69 9
a 70 85 4
a 85 70 4
a 70 71 8
a 71 70 8
a 71 86 7
a 86 71 7
a 71 72 6
a 72 71 6
a 72 87 2
a 87 72 2
a 72 73 4
a 73 72 4
a 73 88 7
a 88 73 7
a 73 74 7
a 74 73 7
a 74 89 5
a 89 74 5
a 74 75 8
a 75 74 8
a 75 90 8
a 90 75 8
a 76 91 7
a 91 76 7
a 76 77 3
a 77 76 3
a 77 92 3
a 92 77 3
a 77 78 3
a 78 77 3
a 78 93 4
a 93 78 4
a 78 79 8
a 79 78 8
a 79 94 9
a 94 79 9
a 79 80 2
a 80 79 2
a 80 95 2
a 95 80 2
a 80 81 1
a 81 80 1
a 81 96 6
a 96 81 6
a 81 82 4
a 82 81 4
a 82 97 7
a 97 82 7
a 82 83 5
a 83 82 5
a 83 98 10
a 98 83 10
a 83 84 3
a 84 83 3
a 84 99 7
a 99 84 7
a 84 85 5
a 85 84 5
a 85 100 9
a 100 85 9
a 85 86 5
a 86 85 5
a 86 101 2
a 101 86 2
a 86 87 6
a 87 86 6
a 87 102 7
a 102 87 7
a 87 88 3
a 88 87 3
a 88 103 6
a 103 88 6
a 88 89 4
a 89 88 4
a 89 104 5
a 104 89 5
a 89 90 8
a 90 89 8
a 90 105 9
a 105 90 9
a 91 106 10
a 106 91 10
a 91 92 8
a 92 91 8
a 92 107 1
a 107 92 1
a 92 93 4
a 93 92 4
a 93 108 4
a 108 93 4
a 93 94 4
a 94 93 4
a 94 109 3
a 109 94 3
a 94 95 2
a 95 94 2
a 95 110 3
a 110 95 3
a 95 96 3
a 96 95 3
a 96 111 5
a 111 96 5
a 96 97 5
a 97 96 5
a 97 112 8
a 112 97 8
a 97 98 6
a 98 97 6
a 98 113 8
a 113 98 8
a 98 99 9
a 99 98 9
a 99 114 5
a 114 99 5
a 99 100 9
a 100 99 9
a 100 115 7
a 115 100 7
a 100 101 6
a 101 100 6
a 101 116 5
a 116 101 5
a 101 102 4
a 102 101 4
a 102 117 6
a 117 102 6
a 102 103 5
a 103 102 5
a 103 118 2
a 118 103 2
a 103 104 2
a 104 103 2
a 104 119 8
a 119 104 8
a 104 105 4
a 105 104 4
a 105 120 9
a 120 105 9
a 106 121 9
a 121 106 9
a 106 107 8
a 107 106 8
a 107 122 10
a 122 107 10
a 107 108 4
a 108 107 4
a 108 123 10
a 123 108 10
a 108 109 3
a 109 108 3
a 109 124 5
a 124 109 5
a 109 110 4
a 110 109 4
a 110 125 5
a 125 110 5
a 110 111 7
a 111 110 7
a 111 126 8
a 126 111 8
a 111 112 3
a 112 111 3
a 112 127 8
a 127 112 8
a 112 113 9
a 113 112 9
a 113 128 7
a 128 113 7
a 113 114 4
a 114 113 4
a 114 129 3
a 129 114 3
a 114 115 10
a 115 114 10
a 115 130 8
a 130 115 8
a 115 116 2
a 116 115 2
a 116 131 8
a 131 116 8
a 116 117 6
a 117 116 6
a 117 132 10
a 132 117 10
a 117 118 5
a 118 117 5
a 118 133 4
a 133 118 4
a 118 119 3
a 119 118 3
a 119 134 6
a 134 119 6
a 119 120 8
a 120 119 8
a 120 135 5
a 135 120 5
a 121 136 7
a 136 121 7
a 121 122 8
a 122 121 8
a 122 137 7
a 137 122 7
a 122 123 2
a 123 122 2
a 123 138 9
a 138 123 9
a 123 124 8
a 124 123 8
a 124 139 1
a 139 124 1
a 124 125 4
a 125 124 4
a 125 140 10
a 140 125 10
a 125 126 7
a 126 125 7
a 126 141 5
a 141 126 5
a 126 127 5
a 127 126 5
a 127 142 2
a 142 127 2
a 127 128 8
a 128 127 8
a 128 143 9
a 143 128 9
a 128 129 7
a 129 128 7
a 129 144 1
a 144 129 1
a 129 130 9
a 130 129 9
a 130 145 4
a 145 130 4
a 130 131 8
a 131 130 8
a 131 146 4
a 146 131 4
a 131 132 8
a 132 131 8
a 132 147 6
a 147 132 6
a 132 133 10
a 133 132 10
a 133 148 6
a 148 133 6
a 133 134 3
a 134 133 3
a 134 149 2
a 149 134 2
a 134 135 6
a 135 134 6
a 135 150 10
a 150 135 10
a 136 151 8
a 151 136 8
a 136 137 3
a 137 136 3
a 137 152 9
a 152 137 9
a 137 138 1
a 138 137 1
a 138 153 10
a 153 138 10
a 138 139 7
a 139 138 7
a 139 154 6
a 154 139 6
a 139 140 1
a 140 139 1
a 140 155 10
a 155 140 10
a 140 141 2
a 141 140 2
a 141 156 4
a 156 141 4
a 141 142 7
a 142 141 7
a 142 157 1
a 157 142 1
a 142 143 1
a 143 142 1
a 143 158 3
a 158 143 3
a 143 144 10
a 144 143 10
a 144 159 1
a 159 144 1
a 144 145 7
a 145 144 7
a 145 160 9
a 160 145 9
a 145 146 9
a 146 145 9
a 146 161 1
a 161 146 1
a 146 147 7
a 147 146 7
a 147 162 10
a 162 147 10
a 147 148 2
a 148 147 2
a 148 163 5
a 163 148 5
a 148 149 2
a 149 148 2
a 149 164 8
a 164 149 8
a 149 150 3
a 150 149 3
a 150 165 1
a 165 150 1
a 151 166 9
a 166 151 9
a 151 152 10
a 152 151 10
a 152 167 5
a 167 152 5
a 152 153 3
a 153 152 3
a 153 168 10
a 168 153 10
a 153 154 6
a 154 153 6
a 154 169 2
a 169 154 2
a 154 155 4
a 155 154 4
a 155 170 10
a 170 155 10
a 155 156 9
a 156 155 9
a 156 171 6
a 171 156 6
a 156 157 3
a 157 156 3
a 157 172 1
a 172 157 1
a 157 158 1
a 158 157 1
a 158 173 2
a 173 158 2
a 158 159 7
a 159 158 7
a 159 174 7
a 174 159 7
a 159 160 3
a 160 159 3
a 160 175 9
a 175 160 9
a 160 161 1
a 161 160 1
a 161 176 5
a 176 161 5
a 161 162 3
a 162 161 3
a 162 177 5
a 177 162 5
a 162 163 3
a 163 162 3
a 163 178 8
a 178 163 8
a 163 164 3
a 164 163 3
a 164 179 4
a 179 164 4
a 164 165 4
a 165 164 4
a 165 180 9
a 180 165 9
a 166 181 3
a 181 166 3
a 166 167 1
a 167 166 1
a 167 182 9
a 182 167 9
a 167 168 2
a 168 167 2
a 168 183 9
a 183 168 9
a 168 169 6
a 169 168 6
a 169 184 7
a 184 169 7
a 169 170 3
a 170 169 3
a 170 185 6
a 185 170 6
a 170 171 3
a 171 170 3
a 171 186 1
a 186 171 1
a 171 172 5
a 172 171 5
a 172 187 2
a 187 172 2
a 172 173 2
a 173 172 2
a 173 188 4
a 188 173 4
a 173 174 5
a 174 173 5
a 174 189 5
a 189 174 5
a 174 175 6
a 175 174 6
a 175 190 6
a 190 175 6
a 175 176 5
a 176 175 5
a 176 191 9
a 191 176 9
a 176 177 1
a 177 176 1
a 177 192 6
a 192 177 6
a 177 178 6
a 178 177 6
a 178 193 1
a 193 178 1
a 178 179 3
a 179 178 3
a 179 194 3
a 194 179 3
a 179 180 6
a 180 179 6
a 180 195 7
a 195 180 7
a 181 196 10
a 196 181 10
a 181 182 7
a 182 181 7
a 182 197 7
a 197 182 7
a 182 183 7
a 183 182 7
a 183 198 3
a 198 183 3
a 183 184 2
a 184 183 2
a 184 199 2
a 199 184 2
a 184 185 3
a 185 184 3
a 185 200 6
a 200 185 6
a 185 186 4
a 186 185 4
a 186 201 5
a 201 186 5
a 186 187 7
a 187 186 7
a 187 202 10
a 202 187 10
a 187 188 5
a 188 187 5
a 188 203 4
a 203 188 4
a 188 189 4
a 189 188 4
a 189 204 3
a 204 189 3
a 189 190 8
a 190 189 8
a 190 205 3
a 205 190 3
a 190 191 7
a 191 190 7
a 191 206 5
a 206 191 5
a 191 192 1
a 192 191 1
a 192 207 2
a 207 192 2
a 192 193 10
a 193 192 10
a 193 208 3
a 208 193 3
a 193 194 8
a 194 193 8
a 194 209 9
a 209 194 9
a 194 195 4
a 195 194 4
a 195 210 10
a 210 195 10
a 196 211 1
a 211 196 1
a 196 197 3
a 197 196 3
a 197 212 9
a 212 197 9
a 197 198 1
a 198 197 1
a 198 213 6
a 213 198 6
a 198 199 4
a 199 198 4
a 199 214 6
a 214 199 6
a 199 200 6
a 200 199 6
a 200 215 4
a 215 200 4
a 200 201 8
a 201 200 8
a 201 216 5
a 216 201 5
a 201 202 2
a 202 201 2
a 202 217 7
a 217 202 7
a 202 203 5
a 203 202 5
a 203 218 7
a 218 203 7
a 203 204 7
a 204 203 7
a 204 219 6
a 219 204 6
a 204 205 3
a 205 204 3
a 205 220 8
a 220 205 8
a 205 206 7
a 206 205 7
a 206 221 2
a 221 206 2
a 206 207 4
a 207 206 4
a 207 222 5
a 222 207 5
a 207 208 5
a 208 207 5
a 208 223 1
a 223 208 1
a 208 209 4
a 209 208 4
a 209 224 1
a 224 209 1
a 209 210 3
a 210 209 3
a 210 225 7
a 225 210 7
a 211 212 7
a 212 211 7
a 212 213 10
a 213 212 10
a 213 214 2
a 214 213 2
a 214 215 10
a 215 214 10
a 215 216 8
a 216 215 8
a 216 217 8
a 217 216 8
a 217 218 5
a 218 217 5
a 218 219 10
a 219 218 10
a 219 220 7
a 220 219 7
a 220 221 4
a 221 220 4
a 221 222 4
a 222 221 4
a 222 223 4
a 223 222 4
a 223 224 10
a 224 223 10
a 224 225 6
a 225 224 6
